<number of tasks>
50

<cycle time>
1000

<order strength>
0.195


<task times>
1 528
2 360
3 518
4 379
5 576
6 529
7 357
8 476
9 665
10 312
11 706
12 509
13 473
14 556
15 375
16 440
17 476
18 435
19 571
20 640
21 346
22 595
23 764
24 499
25 460
26 761
27 589
28 733
29 494
30 570
31 582
32 706
33 633
34 535
35 379
36 499
37 498
38 357
39 685
40 419
41 307
42 482
43 528
44 237
45 371
46 381
47 658
48 571
49 555
50 635

<precedence relations>
1,11
2,10
4,7
4,8
4,9
5,6
6,13
6,18
7,14
7,17
7,18
7,20
8,15
9,16
9,43
11,12
11,36
12,23
13,32
15,49
16,20
17,19
17,21
17,22
20,44
21,25
21,29
21,44
22,48
23,24
23,26
23,27
23,28
23,39
24,33
25,34
26,30
28,35
29,31
29,32
31,36
31,37
31,38
33,37
33,42
34,39
34,40
34,43
34,48
35,41
36,46
37,43
37,45
40,50
41,49
42,44
42,47
42,48

<end>
